include system.in.init
read_data system.data
include system.in.settings

timestep        2.0
dump            1 all custom 5000 traj_nvt.lammpstrj id mol type x y z ix iy iz

fix fxlan all langevin 310.15 310.15 5000.0 48279
fix fxnve all nve

thermo_style    custom step temp pe etotal press vol epair ebond eangle edihed
thermo          1000

run		2000000

write_data  system_after_nvt.data
