pair_coeff 1 1 1.0 4.0 4.0
pair_coeff 2 2 0.5 2.0 3.0
pair_coeff 3 3 1.0 4.0

pair_coeff 1 2 1.0 3.0 3.0
pair_coeff 1 3 1.0 4.0 5.0
pair_coeff 2 3 0.5 3.0 4.0
bond_coeff 2 100.0 2.0
bond_coeff 3 100.0 7.0
bond_coeff 1    100.0 3.8
angle_coeff 1  20.00 150
angle_coeff 2 20.00 105
