units          real
atom_style     full
bond_style     harmonic
angle_style    cosine/squared
pair_style     lj/cut 12.0
special_bonds  lj 0.0 0.0 0.0
